Reading model...
...model read.
creating competitive generators file...
...competitive generators recorded.
Loading data...
.. real-time data read.
Compiling instance...
...instance created.
Creating Offer Mitigation (model will solve as dispatch if TRUE)...
...storage offer mitigation file created
Converting model to MPEC...
...converted
NOTE: initial MIP solve with only storage competitive to get feasible solution
Solving...

Welcome to IBM(R) ILOG(R) CPLEX(R) Interactive Optimizer 12.9.0.0
  with Simplex, Mixed Integer & Barrier Optimizers
5725-A06 5725-A29 5724-Y48 5724-Y49 5724-Y54 5724-Y55 5655-Y21
Copyright IBM Corp. 1988, 2019.  All Rights Reserved.

Type 'help' for a list of available commands.
Type 'help' followed by a command name for more
information on commands.

CPLEX> Logfile 'cplex.log' closed.
Logfile 'C:\Users\llavin\Desktop\test826\logs\tmpz2p65_m4.cplex.log' open.
CPLEX> New value for parallel optimization mode: -1
CPLEX> New value for mixed integer optimality gap tolerance: 0.01
CPLEX> New value for feasibility tolerance: 1e-09
CPLEX> New value for deterministic time limit in ticks: 150000
CPLEX> Problem 'C:\Users\llavin\Desktop\test826\logs\tmp0d1mc2n1.pyomo.lp' read.
Read time = 0.55 sec. (28.83 ticks)
CPLEX> Problem name         : C:\Users\llavin\Desktop\test826\logs\tmp0d1mc2n1.pyomo.lp
Objective sense      : Maximize
Variables            :  107783  [Nneg: 1,  Box: 44058,  Free: 8928,
                                 Binary: 54796]
Objective nonzeros   :   17555
Linear constraints   :  246903  [Less: 82866,  Greater: 118424,  Equal: 45613]
  Nonzeros           :  618447
  RHS nonzeros       :  135061

Variables            : Min LB: -5000.000        Max UB: 1000000.       
Objective nonzeros   : Min   : 0.008333333      Max   : 208.3333       
Linear constraints   :
  Nonzeros           : Min   : 0.008333333      Max   : 1000000.       
  RHS nonzeros       : Min   : 0.008333333      Max   : 1000000.       
CPLEX> CPXPARAM_Parallel                                -1
CPXPARAM_Simplex_Tolerances_Feasibility          1.0000000000000001e-09
CPXPARAM_DetTimeLimit                            150000
CPXPARAM_MIP_Tolerances_MIPGap                   0.01
Tried aggregator 3 times.
MIP Presolve eliminated 181090 rows and 41044 columns.
MIP Presolve added 6226 rows and 0 columns.
MIP Presolve modified 50301 coefficients.
Aggregator did 25936 substitutions.
Reduced MIP has 46103 rows, 39305 columns, and 136338 nonzeros.
Reduced MIP has 15494 binaries, 0 generals, 0 SOSs, and 0 indicators.
Presolve time = 0.63 sec. (350.73 ticks)
Probing fixed 809 vars, tightened 9293 bounds.
Probing time = 0.38 sec. (14.84 ticks)
Tried aggregator 2 times.
MIP Presolve eliminated 1812 rows and 1619 columns.
MIP Presolve modified 5602 coefficients.
Aggregator did 48 substitutions.
Reduced MIP has 44243 rows, 37638 columns, and 130946 nonzeros.
Reduced MIP has 14685 binaries, 0 generals, 0 SOSs, and 0 indicators.
Presolve time = 0.23 sec. (220.18 ticks)
Probing fixed 1 vars, tightened 535 bounds.
Probing time = 0.51 sec. (18.08 ticks)
Clique table members: 84458.
MIP emphasis: balance optimality and feasibility.
MIP search method: dynamic search.
Parallel mode: opportunistic, using up to 32 threads.
Root relaxation solution time = 0.92 sec. (1660.71 ticks)

        Nodes                                         Cuts/
   Node  Left     Objective  IInf  Best Integer    Best Bound    ItCnt     Gap

      0     0        0.0000    44                      0.0000     9025         
*     0+    0                            0.0000        0.0000             0.00%
      0     0        cutoff              0.0000        0.0000     9025    0.00%
Elapsed time = 4.05 sec. (3399.87 ticks, tree = 0.01 MB, solutions = 1)

Root node processing (before b&c):
  Real time             =    4.08 sec. (3403.49 ticks)
Parallel b&c, 32 threads:
  Real time             =    0.00 sec. (0.00 ticks)
  Sync time (average)   =    0.00 sec.
  Wait time (average)   =    0.00 sec.
                          ------------
Total (root+branch&cut) =    4.08 sec. (3403.49 ticks)

Solution pool: 1 solution saved.

MIP - Integer optimal solution:  Objective =  3.1127456168e-10
Solution time =    4.09 sec.  Iterations = 9025  Nodes = 0
Deterministic time = 3403.80 ticks  (831.41 ticks/sec)

CPLEX> Incumbent solution written to file 'C:\Users\llavin\Desktop\test826\logs\tmphj9pm1ir.cplex.sol'.
CPLEX> NOTE: no warmstart specified for MIP iteration, default behavior is true
NOTE: resolving with all competitive generators using storage-only solution to warmstart
Solving...

Welcome to IBM(R) ILOG(R) CPLEX(R) Interactive Optimizer 12.9.0.0
  with Simplex, Mixed Integer & Barrier Optimizers
5725-A06 5725-A29 5724-Y48 5724-Y49 5724-Y54 5724-Y55 5655-Y21
Copyright IBM Corp. 1988, 2019.  All Rights Reserved.

Type 'help' for a list of available commands.
Type 'help' followed by a command name for more
information on commands.

CPLEX> Logfile 'cplex.log' closed.
Logfile 'C:\Users\llavin\Desktop\test826\logs\tmpl28ks7tq.cplex.log' open.
CPLEX> New value for parallel optimization mode: -1
CPLEX> New value for mixed integer optimality gap tolerance: 0.01
CPLEX> New value for feasibility tolerance: 1e-09
CPLEX> New value for deterministic time limit in ticks: 150000
CPLEX> Problem 'C:\Users\llavin\Desktop\test826\logs\tmphcfxcxlr.pyomo.lp' read.
Read time = 0.53 sec. (28.87 ticks)
CPLEX> MIP start file 'C:\Users\llavin\Desktop\test826\logs\tmpd0a9bl2q.cplex.mst' read.
CPLEX> Problem name         : C:\Users\llavin\Desktop\test826\logs\tmphcfxcxlr.pyomo.lp
Objective sense      : Maximize
Variables            :  109223  [Nneg: 1,  Box: 45498,  Free: 8928,
                                 Binary: 54796]
Objective nonzeros   :   18947
Linear constraints   :  246903  [Less: 82866,  Greater: 118424,  Equal: 45613]
  Nonzeros           :  618447
  RHS nonzeros       :  135061

Variables            : Min LB: -5000.000        Max UB: 1000000.       
Objective nonzeros   : Min   : 0.008333333      Max   : 208.3333       
Linear constraints   :
  Nonzeros           : Min   : 0.008333333      Max   : 1000000.       
  RHS nonzeros       : Min   : 0.008333333      Max   : 1000000.       
CPLEX> CPXPARAM_Parallel                                -1
CPXPARAM_Simplex_Tolerances_Feasibility          1.0000000000000001e-09
CPXPARAM_DetTimeLimit                            150000
CPXPARAM_MIP_Tolerances_MIPGap                   0.01
Warning:  No solution found from 1 MIP starts.
Retaining values of one MIP start for possible repair.
Tried aggregator 3 times.
MIP Presolve eliminated 181090 rows and 42484 columns.
MIP Presolve added 6226 rows and 0 columns.
MIP Presolve modified 50301 coefficients.
Aggregator did 25936 substitutions.
Reduced MIP has 46103 rows, 39305 columns, and 136338 nonzeros.
Reduced MIP has 15494 binaries, 0 generals, 0 SOSs, and 0 indicators.
Presolve time = 0.63 sec. (351.45 ticks)
Probing fixed 809 vars, tightened 9293 bounds.
Probing time = 0.38 sec. (14.84 ticks)
Tried aggregator 2 times.
MIP Presolve eliminated 1812 rows and 1619 columns.
MIP Presolve modified 5602 coefficients.
Aggregator did 48 substitutions.
Reduced MIP has 44243 rows, 37638 columns, and 130946 nonzeros.
Reduced MIP has 14685 binaries, 0 generals, 0 SOSs, and 0 indicators.
Presolve time = 0.25 sec. (219.91 ticks)
Probing fixed 1 vars, tightened 535 bounds.
Probing time = 0.50 sec. (18.08 ticks)
Clique table members: 84458.
MIP emphasis: balance optimality and feasibility.
MIP search method: dynamic search.
Parallel mode: opportunistic, using up to 32 threads.
Root relaxation solution time = 1.08 sec. (1797.59 ticks)

        Nodes                                         Cuts/
   Node  Left     Objective  IInf  Best Integer    Best Bound    ItCnt     Gap

      0     0    20754.0223   521                  20754.0223    10354         
      0     0    19316.6856   437                   Cuts: 253    10808         
      0     0    19269.3212   409                    Cuts: 75    10881         
      0     0    19269.3212   414                    Cuts: 14    10903         
      0     0    19269.3212   387                 Flowcuts: 2    10911         
      0     0    19269.3212   390                     Cuts: 4    10931         
Repair heuristic found nothing.
      0    26    infeasible                           Cuts: 4    11238         
Elapsed time = 12.94 sec. (8788.21 ticks, tree = 0.02 MB, solutions = 0)
    118   239    17914.1849   366                  19035.2615    13107         
    477    73    18405.0178   324                  19035.2615    11780         
    956   325    16406.6816   273                  19035.2615    14417         
   1300   552    15203.4793   278                  18988.7164    19311         
   1665  1021    infeasible                        18988.7164    28634         
   2012   923    15053.5017   259                  18988.7164    27249         
   2322  1663     8823.2722   155                  18988.7164    38508         
   2654  1405    11129.3451   145                  18988.7164    33648         
   3020  1516     9521.6882   119                  18988.7164    36057         
   4686  3088    infeasible                        18988.7164    54917         
Elapsed time = 34.55 sec. (11895.99 ticks, tree = 34.97 MB, solutions = 1)
*  4727  3215      integral     0        0.0000    18988.7164    59096     --- 
   6712  3217        cutoff              0.0000    18871.9010    74645     --- 

Cover cuts applied:  9
Implied bound cuts applied:  42
Flow cuts applied:  236
Mixed integer rounding cuts applied:  80
Gomory fractional cuts applied:  4

Root node processing (before b&c):
  Real time             =   10.66 sec. (8769.92 ticks)
Parallel b&c, 32 threads:
  Real time             =   33.63 sec. (7775.33 ticks)
  Sync time (average)   =    1.50 sec.
  Wait time (average)   =    0.00 sec.
                          ------------
Total (root+branch&cut) =   44.28 sec. (16545.25 ticks)

Solution pool: 16 solutions saved.

MIP - Integer optimal, tolerance (0.01/1e-06):  Objective =  2.3510438041e-10
Current MIP best bound =  7.9853634816e-10 (gap = 5.63432e-10, 0.00%)
Solution time =   44.31 sec.  Iterations = 185746  Nodes = 7808 (1369)
Deterministic time = 16545.57 ticks  (373.38 ticks/sec)

CPLEX> Incumbent solution written to file 'C:\Users\llavin\Desktop\test826\logs\tmprqunlsif.cplex.sol'.
CPLEX> Exporting results... 
